\ENCODING=ISO-8859-1
\Problem name: instances

Maximize
 obj:
Subject To
 c1: 143 x1 + 501 x2 + 298 x3 + 94 x4 + 628 x5 + 589 x6 + 554 x7 + 754 x8
     + 582 x9 + 499 x10 + 201 x11 + 446 x12 + 254 x13 + 655 x14 + 541 x15
     + 942 x16 + 966 x17 + 6 x18 + 335 x19 + 891 x20 + 232 x21 + 648 x22
     + 26 x23 + 131 x24 + 558 x25 + 998 x26 + 709 x27 + 678 x28 + 361 x29
     + 336 x30 + 432 x31 + 504 x32 + 836 x33 + 730 x34 + 597 x35 + 463 x36
     + 319 x37 + 150 x38 + 217 x39 + 901 x40 + 649 x41 + 417 x42 + 347 x43
     + 903 x44 + 72 x45 + 887 x46 + 844 x47 + 38 x48 + 893 x49 + 178 x50
     + 928 x51 + 124 x52 + 825 x53 + 953 x54 + 255 x55 + 383 x56 + 950 x57
     + 963 x58 + 61 x59 + 311 x60 + 298 x61 + 493 x62 + 814 x63 + 134 x64
     + 223 x65 + 411 x66 + 597 x67 + 541 x68 + 560 x69 + 814 x70 + 442 x71
     + 208 x72 + 230 x73 + 788 x74 + 110 x75 + 302 x76 + 674 x77 + 954 x78
     + 339 x79 + 566 x80 <= 20092
Bounds
 0 <= x1 <= 1
 0 <= x2 <= 1
 0 <= x3 <= 1
 0 <= x4 <= 1
 0 <= x5 <= 1
 0 <= x6 <= 1
 0 <= x7 <= 1
 0 <= x8 <= 1
 0 <= x9 <= 1
 0 <= x10 <= 1
 0 <= x11 <= 1
 0 <= x12 <= 1
 0 <= x13 <= 1
 0 <= x14 <= 1
 0 <= x15 <= 1
 0 <= x16 <= 1
 0 <= x17 <= 1
 0 <= x18 <= 1
 0 <= x19 <= 1
 0 <= x20 <= 1
 0 <= x21 <= 1
 0 <= x22 <= 1
 0 <= x23 <= 1
 0 <= x24 <= 1
 0 <= x25 <= 1
 0 <= x26 <= 1
 0 <= x27 <= 1
 0 <= x28 <= 1
 0 <= x29 <= 1
 0 <= x30 <= 1
 0 <= x31 <= 1
 0 <= x32 <= 1
 0 <= x33 <= 1
 0 <= x34 <= 1
 0 <= x35 <= 1
 0 <= x36 <= 1
 0 <= x37 <= 1
 0 <= x38 <= 1
 0 <= x39 <= 1
 0 <= x40 <= 1
 0 <= x41 <= 1
 0 <= x42 <= 1
 0 <= x43 <= 1
 0 <= x44 <= 1
 0 <= x45 <= 1
 0 <= x46 <= 1
 0 <= x47 <= 1
 0 <= x48 <= 1
 0 <= x49 <= 1
 0 <= x50 <= 1
 0 <= x51 <= 1
 0 <= x52 <= 1
 0 <= x53 <= 1
 0 <= x54 <= 1
 0 <= x55 <= 1
 0 <= x56 <= 1
 0 <= x57 <= 1
 0 <= x58 <= 1
 0 <= x59 <= 1
 0 <= x60 <= 1
 0 <= x61 <= 1
 0 <= x62 <= 1
 0 <= x63 <= 1
 0 <= x64 <= 1
 0 <= x65 <= 1
 0 <= x66 <= 1
 0 <= x67 <= 1
 0 <= x68 <= 1
 0 <= x69 <= 1
 0 <= x70 <= 1
 0 <= x71 <= 1
 0 <= x72 <= 1
 0 <= x73 <= 1
 0 <= x74 <= 1
 0 <= x75 <= 1
 0 <= x76 <= 1
 0 <= x77 <= 1
 0 <= x78 <= 1
 0 <= x79 <= 1
 0 <= x80 <= 1
Binaries
 x1  x2  x3  x4  x5  x6  x7  x8  x9  x10  x11  x12  x13  x14  x15  x16  x17 
 x18  x19  x20  x21  x22  x23  x24  x25  x26  x27  x28  x29  x30  x31  x32 
 x33  x34  x35  x36  x37  x38  x39  x40  x41  x42  x43  x44  x45  x46  x47 
 x48  x49  x50  x51  x52  x53  x54  x55  x56  x57  x58  x59  x60  x61  x62 
 x63  x64  x65  x66  x67  x68  x69  x70  x71  x72  x73  x74  x75  x76  x77 
 x78  x79  x80 
End
